RT is False
Default write of storage_offers_DA.csv just to have a file (but constraint should be inactive)
Reading model...
...model read.
creating competitive generators file...
...competitive generators recorded.
Loading data...
.. day-ahead data with real-time VRE data read.
Compiling instance...
...instance created.
Creating Offer Mitigation (model will solve as dispatch if TRUE)...
Solving...

Welcome to IBM(R) ILOG(R) CPLEX(R) Interactive Optimizer 12.9.0.0
  with Simplex, Mixed Integer & Barrier Optimizers
5725-A06 5725-A29 5724-Y48 5724-Y49 5724-Y54 5724-Y55 5655-Y21
Copyright IBM Corp. 1988, 2019.  All Rights Reserved.

Type 'help' for a list of available commands.
Type 'help' followed by a command name for more
information on commands.

CPLEX> Logfile 'cplex.log' closed.
Logfile 'C:\Users\llavin\Desktop\test919\logs\tmpbwib53qf.cplex.log' open.
CPLEX> New value for parallel optimization mode: -1
CPLEX> New value for mixed integer optimality gap tolerance: 0.01
CPLEX> New value for integrality tolerance: 1e-09
CPLEX> New value for feasibility tolerance: 0.01
CPLEX> New value for deterministic time limit in ticks: 75000
CPLEX> Problem 'C:\Users\llavin\Desktop\test919\logs\tmpcn_pszbu.pyomo.lp' read.
Read time = 0.06 sec. (3.04 ticks)
CPLEX> Problem name         : C:\Users\llavin\Desktop\test919\logs\tmpcn_pszbu.pyomo.lp
Objective sense      : Minimize
Variables            :   26081  [Nneg: 1,  Box: 21616,  Free: 4464]
Objective nonzeros   :    2496
Linear constraints   :   27515  [Less: 14006,  Greater: 4416,  Equal: 9093]
  Nonzeros           :   89267
  RHS nonzeros       :   12271

Variables            : Min LB: -5000.000        Max UB: 1000000.       
Objective nonzeros   : Min   : 15.73158         Max   : 124.0997       
Linear constraints   :
  Nonzeros           : Min   : 0.8500000        Max   : 3000.000       
  RHS nonzeros       : Min   : 0.008333333      Max   : 5000.000       
CPLEX> CPXPARAM_Parallel                                -1
CPXPARAM_Simplex_Tolerances_Feasibility          0.01
CPXPARAM_DetTimeLimit                            75000
CPXPARAM_MIP_Tolerances_MIPGap                   0.01
CPXPARAM_MIP_Tolerances_Integrality              1.0000000000000001e-09
Parallel mode: opportunistic, using up to 32 threads for concurrent optimization.
Tried aggregator 1 time.
LP Presolve eliminated 21353 rows and 15463 columns.
Aggregator did 774 substitutions.
Reduced LP has 5388 rows, 9844 columns, and 31804 nonzeros.
Presolve time = 0.06 sec. (30.45 ticks)
Symmetry aggregator did 5563 additional substitutions.

Iteration log . . .
Iteration:     1   Dual objective     =             0.000000
Perturbation started.
Iteration:   101   Dual objective     =             0.000000
Iteration:   331   Dual objective     =             1.223569
Iteration:   587   Dual objective     =             1.765471
Iteration:   838   Dual objective     =             1.910084
Iteration:  1031   Dual objective     =             2.028610
Iteration:  1305   Dual objective     =             2.079081
Iteration:  1554   Dual objective     =             2.108013
Iteration:  1777   Dual objective     =             2.130946
Iteration:  1990   Dual objective     =             2.154659
Iteration:  2197   Dual objective     =          3530.585267
Iteration:  2412   Dual objective     =         25571.712696
Iteration:  2630   Dual objective     =         44024.660277
Iteration:  2979   Dual objective     =         48698.218363
Removing perturbation.
Dual superbasis not built.
Using devex.

Primal simplex solved model.


Primal simplex - Optimal:  Objective =  4.8857133917e+04
Solution time =    0.16 sec.  Iterations = 1640 (1174)
Deterministic time = 80.57 ticks  (516.50 ticks/sec)

CPLEX> Solution written to file 'C:\Users\llavin\Desktop\test919\logs\tmp8aqyaqu9.cplex.sol'.
CPLEX> Exporting results... 
...storage offer mitigation file created
Converting model to MPEC...
...converted
NOTE: initial MIP solve with only storage competitive to get feasible solution
Solving...

Welcome to IBM(R) ILOG(R) CPLEX(R) Interactive Optimizer 12.9.0.0
  with Simplex, Mixed Integer & Barrier Optimizers
5725-A06 5725-A29 5724-Y48 5724-Y49 5724-Y54 5724-Y55 5655-Y21
Copyright IBM Corp. 1988, 2019.  All Rights Reserved.

Type 'help' for a list of available commands.
Type 'help' followed by a command name for more
information on commands.

CPLEX> Logfile 'cplex.log' closed.
Logfile 'C:\Users\llavin\Desktop\test919\logs\tmpw7xi3rbo.cplex.log' open.
CPLEX> New value for parallel optimization mode: -1
CPLEX> New value for mixed integer optimality gap tolerance: 0.01
CPLEX> New value for integrality tolerance: 1e-09
CPLEX> New value for feasibility tolerance: 0.01
CPLEX> New value for deterministic time limit in ticks: 75000
CPLEX> Problem 'C:\Users\llavin\Desktop\test919\logs\tmpgz_2ppae.pyomo.lp' read.
Read time = 0.25 sec. (14.78 ticks)
CPLEX> Problem name         : C:\Users\llavin\Desktop\test919\logs\tmpgz_2ppae.pyomo.lp
Objective sense      : Maximize
Variables            :   53805  [Nneg: 1,  Box: 22000,  Free: 4464,
                                 Binary: 27340]
Objective nonzeros   :    8980
Linear constraints   :  123205  [Less: 41346,  Greater: 59096,  Equal: 22763]
  Nonzeros           :  291801
  RHS nonzeros       :   67491

Variables            : Min LB: -5000.000        Max UB: 1000000.       
Objective nonzeros   : Min   : 0.008333333      Max   : 799.1750       
Linear constraints   :
  Nonzeros           : Min   : 0.008333333      Max   : 1000000.       
  RHS nonzeros       : Min   : 0.008333333      Max   : 1000000.       
CPLEX> CPXPARAM_Parallel                                -1
CPXPARAM_Simplex_Tolerances_Feasibility          0.01
CPXPARAM_DetTimeLimit                            75000
CPXPARAM_MIP_Tolerances_MIPGap                   0.01
CPXPARAM_MIP_Tolerances_Integrality              1.0000000000000001e-09
Tried aggregator 3 times.
MIP Presolve eliminated 88627 rows and 18927 columns.
MIP Presolve added 3402 rows and 0 columns.
MIP Presolve modified 24893 coefficients.
Aggregator did 13016 substitutions.
Reduced MIP has 24964 rows, 21306 columns, and 71231 nonzeros.
Reduced MIP has 8415 binaries, 0 generals, 0 SOSs, and 0 indicators.
Presolve time = 0.30 sec. (173.71 ticks)
Probing fixed 378 vars, tightened 2844 bounds.
Probing time = 1.19 sec. (874.20 ticks)
Tried aggregator 2 times.
MIP Presolve eliminated 857 rows and 758 columns.
MIP Presolve modified 2192 coefficients.
Aggregator did 36 substitutions.
Reduced MIP has 24071 rows, 20512 columns, and 68651 nonzeros.
Reduced MIP has 8036 binaries, 0 generals, 0 SOSs, and 0 indicators.
Presolve time = 0.09 sec. (67.35 ticks)
Probing time = 0.03 sec. (15.69 ticks)
Clique table members: 6337.
MIP emphasis: balance optimality and feasibility.
MIP search method: dynamic search.
Parallel mode: opportunistic, using up to 32 threads.
Root relaxation solution time = 0.31 sec. (254.64 ticks)

        Nodes                                         Cuts/
   Node  Left     Objective  IInf  Best Integer    Best Bound    ItCnt     Gap

      0     0     3887.8018  1593                   3887.8018     5702         
*     0     0      integral     0     3887.8018     3887.8018     5702    0.00%
Elapsed time = 3.77 sec. (2694.83 ticks, tree = 0.01 MB, solutions = 1)

Root node processing (before b&c):
  Real time             =    3.78 sec. (2696.77 ticks)
Parallel b&c, 32 threads:
  Real time             =    0.00 sec. (0.00 ticks)
  Sync time (average)   =    0.00 sec.
  Wait time (average)   =    0.00 sec.
                          ------------
Total (root+branch&cut) =    3.78 sec. (2696.77 ticks)

Solution pool: 1 solution saved.

MIP - Integer optimal solution:  Objective =  3.8878018418e+03
Solution time =    3.80 sec.  Iterations = 5702  Nodes = 0
Deterministic time = 2696.93 ticks  (710.28 ticks/sec)

CPLEX> Incumbent solution written to file 'C:\Users\llavin\Desktop\test919\logs\tmpgcdrx48b.cplex.sol'.
CPLEX> NOTE: no warmstart specified for MIP iteration, default behavior is true
NOTE: resolving with all competitive generators using storage-only solution to warmstart
Solving...

Welcome to IBM(R) ILOG(R) CPLEX(R) Interactive Optimizer 12.9.0.0
  with Simplex, Mixed Integer & Barrier Optimizers
5725-A06 5725-A29 5724-Y48 5724-Y49 5724-Y54 5724-Y55 5655-Y21
Copyright IBM Corp. 1988, 2019.  All Rights Reserved.

Type 'help' for a list of available commands.
Type 'help' followed by a command name for more
information on commands.

CPLEX> Logfile 'cplex.log' closed.
Logfile 'C:\Users\llavin\Desktop\test919\logs\tmpp3kmd1ab.cplex.log' open.
CPLEX> New value for parallel optimization mode: -1
CPLEX> New value for mixed integer optimality gap tolerance: 0.01
CPLEX> New value for integrality tolerance: 1e-09
CPLEX> New value for feasibility tolerance: 0.01
CPLEX> New value for deterministic time limit in ticks: 75000
CPLEX> Problem 'C:\Users\llavin\Desktop\test919\logs\tmptjr53psp.pyomo.lp' read.
Read time = 0.23 sec. (14.81 ticks)
CPLEX> MIP start file 'C:\Users\llavin\Desktop\test919\logs\tmpil8o6_er.cplex.mst' read.
CPLEX> Problem name         : C:\Users\llavin\Desktop\test919\logs\tmptjr53psp.pyomo.lp
Objective sense      : Maximize
Variables            :   54525  [Nneg: 1,  Box: 22720,  Free: 4464,
                                 Binary: 27340]
Objective nonzeros   :    9676
Linear constraints   :  123205  [Less: 41346,  Greater: 59096,  Equal: 22763]
  Nonzeros           :  291801
  RHS nonzeros       :   67491

Variables            : Min LB: -5000.000        Max UB: 1000000.       
Objective nonzeros   : Min   : 0.008333333      Max   : 786.9417       
Linear constraints   :
  Nonzeros           : Min   : 0.008333333      Max   : 1000000.       
  RHS nonzeros       : Min   : 0.008333333      Max   : 1000000.       
CPLEX> CPXPARAM_Parallel                                -1
CPXPARAM_Simplex_Tolerances_Feasibility          0.01
CPXPARAM_DetTimeLimit                            75000
CPXPARAM_MIP_Tolerances_MIPGap                   0.01
CPXPARAM_MIP_Tolerances_Integrality              1.0000000000000001e-09
Warning:  No solution found from 1 MIP starts.
Retaining values of one MIP start for possible repair.
Tried aggregator 3 times.
MIP Presolve eliminated 88627 rows and 19647 columns.
MIP Presolve added 3402 rows and 0 columns.
MIP Presolve modified 24893 coefficients.
Aggregator did 13016 substitutions.
Reduced MIP has 24964 rows, 21306 columns, and 71231 nonzeros.
Reduced MIP has 8415 binaries, 0 generals, 0 SOSs, and 0 indicators.
Presolve time = 0.31 sec. (174.07 ticks)
Probing fixed 378 vars, tightened 2844 bounds.
Probing time = 1.19 sec. (874.20 ticks)
Tried aggregator 2 times.
MIP Presolve eliminated 857 rows and 758 columns.
MIP Presolve modified 2192 coefficients.
Aggregator did 36 substitutions.
Reduced MIP has 24071 rows, 20512 columns, and 68651 nonzeros.
Reduced MIP has 8036 binaries, 0 generals, 0 SOSs, and 0 indicators.
Presolve time = 0.11 sec. (67.34 ticks)
Probing time = 0.05 sec. (15.69 ticks)
Clique table members: 6337.
MIP emphasis: balance optimality and feasibility.
MIP search method: dynamic search.
Parallel mode: opportunistic, using up to 32 threads.
Root relaxation solution time = 0.33 sec. (253.94 ticks)

        Nodes                                         Cuts/
   Node  Left     Objective  IInf  Best Integer    Best Bound    ItCnt     Gap

      0     0   157840.6330  1632                 157840.6330     5674         
      0     0   153561.2357   502                   Cuts: 864     6125         
      0     0   152819.2363   442                   Cuts: 215     6263         
      0     0   152677.2414   419                   Cuts: 133     6320         
      0     0   152677.2414   397                   Cuts: 115     6356         
      0     0   152677.2414   370                   Cuts: 124     6398         
      0     0   152677.2414   360                   Cuts: 103     6428         
      0     0   152677.2414   338                   Cuts: 105     6452         
      0     0   150152.7098   313                    Cuts: 98     6521         
      0     0   150046.2494   309                   Cuts: 105     6546         
      0     0   150045.4202   296                    Cuts: 80     6560         
      0     0   150044.8195   297                    Cuts: 62     6565         
      0     0   145777.5142   305                    Cuts: 75     6620         
      0     0   145717.7060   294                   Cuts: 101     6657         
      0     0   145717.6274   295                    Cuts: 67     6664         
Repair heuristic found nothing.
      0     3   140190.9073   285                    Cuts: 20     6693         
Elapsed time = 12.66 sec. (7222.20 ticks, tree = 0.02 MB, solutions = 0)
    373   128   106465.6358   259                 136760.3645    11427         
    631   467    69057.0437   195                 136351.8255    22791         
   1069   515    42850.5793   199                 136351.8255    23721         
   1639   723    49643.8941   222                 136351.8255    27704         
   2107  1185    21479.3294   165                 136351.8255    37083         
   2654  1421    -2677.8746   153                 136351.8255    41080         
   3315  2142     3841.1980   119                 136351.8255    45769         
   4104  2289    -5429.2650   108                 136351.8255    46455         
   4986  2791    -5429.2650    80                 136351.8255    48339         
*  6261+ 4037                        -5429.2650   136351.8255              --- 
Elapsed time = 26.53 sec. (9685.77 ticks, tree = 29.89 MB, solutions = 5)
   8739  1620    55389.7951   204    15485.3632   136097.7143    55438  778.88%
   8995  3032    infeasible          15485.3632    87309.0162    78886  463.82%
   9460    78    24671.6275   114    15485.3632    62081.6194    82146  300.91%
  10386   105        cutoff          15485.3632    60169.6012    91888  288.56%
  11800   106    21794.2232    89    15485.3632    15938.0607    91161    2.92%
  13001    60        cutoff          15485.3632    15938.0607   127313    2.92%
  13403    86    15742.7080    60    15485.3632    15938.0607   132360    2.92%

Clique cuts applied:  6
Cover cuts applied:  11
Implied bound cuts applied:  50
Flow cuts applied:  391
Mixed integer rounding cuts applied:  42
Gomory fractional cuts applied:  65

Root node processing (before b&c):
  Real time             =   10.83 sec. (7202.05 ticks)
Parallel b&c, 32 threads:
  Real time             =   52.06 sec. (12924.95 ticks)
  Sync time (average)   =    7.11 sec.
  Wait time (average)   =    0.18 sec.
                          ------------
Total (root+branch&cut) =   62.89 sec. (20127.00 ticks)

Solution pool: 12 solutions saved.

MIP - Integer optimal, tolerance (0.01/1e-06):  Objective =  1.5485363208e+04
Current MIP best bound =  1.5625094792e+04 (gap = 139.732, 0.90%)
Solution time =   62.91 sec.  Iterations = 132894  Nodes = 13416 (57)
Deterministic time = 20127.16 ticks  (319.96 ticks/sec)

CPLEX> Incumbent solution written to file 'C:\Users\llavin\Desktop\test919\logs\tmpj4pnkh1g.cplex.sol'.
CPLEX> Exporting results... 
